<?xml version="1.0" encoding="UTF-8"?><osil xmlns="os.optimizationservices.org" xmlns:xsi="http://www.w3.org/2001/XMLSchema-instance" xsi:schemaLocation="os.optimizationservices.org http://www.optimizationservices.org/schemas/2.0/OSiL.xsd"><instanceHeader><name>syn05hfsg</name></instanceHeader><instanceData><variables numberOfVariables="42"><var name="x2" ub="10"/><var name="x3"/><var name="x4"/><var name="x5"/><var name="x6"/><var name="x7"/><var name="x8"/><var name="x9"/><var name="x10"/><var name="x11"/><var name="x12"/><var name="x13" ub="7"/><var name="x14"/><var name="x15"/><var name="x16"/><var name="x17"/><var name="x18"/><var name="x19"/><var name="x20"/><var name="x21"/><var name="x22"/><var name="x23"/><var name="x24"/><var name="x25"/><var name="x26"/><var name="x27"/><var name="x28"/><var name="x29"/><var name="x30"/><var name="x31"/><var name="x32"/><var name="x33"/><var name="x34"/><var name="x35"/><var name="x36"/><var name="x37"/><var name="x38"/><var name="b39" type="B" ub="1"/><var name="b40" type="B" ub="1"/><var name="b41" type="B" ub="1"/><var name="b42" type="B" ub="1"/><var name="b43" type="B" ub="1"/></variables><objectives><obj maxOrMin="max" name="defObj_objvar" numberOfObjCoef="10"><coef idx="6">5</coef><coef idx="11">-2</coef><coef idx="12">200</coef><coef idx="13">2.5e2</coef><coef idx="14">300</coef><coef idx="37">-5</coef><coef idx="38">-8</coef><coef idx="39">-6</coef><coef idx="40">-10</coef><coef idx="41">-6</coef></obj></objectives><constraints numberOfConstraints="58"><con name="e2" lb="0" ub="0"/><con name="e3" lb="0" ub="0"/><con name="e4" lb="0" ub="0"/><con name="e5" lb="0" ub="0"/><con name="e6" ub="0"/><con name="e7" lb="0" ub="0"/><con name="e8" lb="0" ub="0"/><con name="e9" lb="0" ub="0"/><con name="e10" lb="0" ub="0"/><con name="e11" ub="0"/><con name="e12" ub="10"/><con name="e13" ub="0"/><con name="e14" ub="2.39789527279837"/><con name="e15" ub="0"/><con name="e16" lb="0" ub="0"/><con name="e17" lb="0" ub="0"/><con name="e18" lb="0" ub="0"/><con name="e19" lb="0" ub="0"/><con name="e20" ub="0"/><con name="e21" ub="10"/><con name="e22" ub="0"/><con name="e23" ub="2.87747432735804"/><con name="e24" lb="0" ub="0"/><con name="e25" lb="0" ub="0"/><con name="e26" lb="0" ub="0"/><con name="e27" lb="0" ub="0"/><con name="e28" lb="0" ub="0"/><con name="e29" ub="0"/><con name="e30" ub="2.87747432735804"/><con name="e31" ub="0"/><con name="e32" ub="2.15810574551853"/><con name="e33" ub="0"/><con name="e34" lb="0" ub="0"/><con name="e35" lb="0" ub="0"/><con name="e36" lb="0" ub="0"/><con name="e37" lb="0" ub="0"/><con name="e38" ub="0"/><con name="e39" ub="2.87747432735804"/><con name="e40" ub="0"/><con name="e41" ub="2.03277599268042"/><con name="e42" lb="0" ub="0"/><con name="e43" lb="0" ub="0"/><con name="e44" lb="0" ub="0"/><con name="e45" lb="0" ub="0"/><con name="e46" lb="0" ub="0"/><con name="e47" lb="0" ub="0"/><con name="e48" lb="0" ub="0"/><con name="e49" lb="0" ub="0"/><con name="e50" ub="0"/><con name="e51" ub="2.87747432735804"/><con name="e52" ub="0"/><con name="e53" ub="7"/><con name="e54" ub="0"/><con name="e55" ub="3.5"/><con name="e56" lb="1" ub="1"/><con name="e57" lb="0"/><con name="e58" lb="0"/><con name="e59" lb="0"/></constraints><linearConstraintCoefficients numberOfValues="118"><start><el mult="4" incr="3">0</el><el mult="2">13</el><el>14</el><el mult="3" incr="3">15</el><el mult="4" incr="2">23</el><el mult="3" incr="1">29</el><el>34</el><el mult="6" incr="2">37</el><el>48</el><el mult="3" incr="3">49</el><el mult="4" incr="2">57</el><el mult="3" incr="1">63</el><el>68</el><el mult="7" incr="2">71</el><el mult="3" incr="1">84</el><el mult="3" incr="3">89</el><el mult="7" incr="2">97</el><el mult="3" incr="3">112</el></start><colIdx><el mult="6" incr="1">0</el><el mult="3" incr="1">5</el><el mult="4" incr="1">7</el><el>16</el><el>20</el><el>1</el><el>15</el><el>16</el><el>3</el><el>19</el><el>20</el><el>15</el><el>37</el><el>16</el><el>37</el><el>19</el><el>37</el><el>20</el><el>37</el><el>18</el><el>22</el><el>2</el><el>17</el><el>18</el><el>4</el><el>21</el><el>22</el><el>17</el><el>38</el><el>18</el><el>38</el><el>21</el><el>38</el><el>22</el><el>38</el><el>23</el><el>31</el><el>24</el><el>32</el><el>8</el><el>23</el><el>24</el><el>12</el><el>31</el><el>32</el><el>23</el><el>39</el><el>24</el><el>39</el><el>31</el><el>39</el><el>32</el><el>39</el><el>26</el><el>34</el><el>9</el><el>25</el><el>26</el><el>13</el><el>33</el><el>34</el><el>25</el><el>40</el><el>26</el><el>40</el><el>33</el><el>40</el><el>34</el><el>40</el><el>27</el><el>35</el><el>29</el><el>35</el><el>28</el><el>30</el><el>36</el><el>10</el><el>27</el><el>28</el><el>11</el><el>29</el><el>30</el><el>14</el><el>35</el><el>36</el><el>27</el><el>41</el><el>28</el><el>41</el><el>29</el><el>41</el><el>30</el><el>41</el><el>35</el><el>41</el><el>36</el><el>41</el><el>37</el><el>38</el><el mult="3" incr="1">37</el><el>37</el><el>38</el><el>40</el><el>37</el><el>38</el><el>41</el></colIdx><value><el>1</el><el mult="4">-1</el><el mult="2">1</el><el mult="2">-1</el><el>1</el><el mult="3">-1</el><el mult="3">1</el><el mult="2">-1</el><el>1</el><el mult="2">-1</el><el>1</el><el>-10</el><el>1</el><el>10</el><el>1</el><el>-2.39789527279837</el><el>1</el><el>2.39789527279837</el><el mult="3">1</el><el mult="2">-1</el><el>1</el><el mult="2">-1</el><el>1</el><el>-10</el><el>1</el><el>10</el><el>1</el><el>-2.87747432735804</el><el>1</el><el>2.87747432735804</el><el>-.75</el><el mult="4">1</el><el mult="2">-1</el><el>1</el><el mult="2">-1</el><el>1</el><el>-2.87747432735804</el><el>1</el><el>2.87747432735804</el><el>1</el><el>-2.15810574551853</el><el>1</el><el>2.15810574551853</el><el mult="3">1</el><el mult="2">-1</el><el>1</el><el mult="2">-1</el><el>1</el><el>-2.87747432735804</el><el>1</el><el>2.87747432735804</el><el>1</el><el>-2.03277599268042</el><el>1</el><el>2.03277599268042</el><el>-1</el><el>1</el><el>-.5</el><el mult="5">1</el><el mult="2">-1</el><el>1</el><el mult="2">-1</el><el>1</el><el mult="2">-1</el><el>1</el><el>-2.87747432735804</el><el>1</el><el>2.87747432735804</el><el>1</el><el>-7</el><el>1</el><el>7</el><el>1</el><el>-3.5</el><el>1</el><el>3.5</el><el mult="4">1</el><el>-1</el><el mult="2">1</el><el>-1</el><el mult="2">1</el><el>-1</el></value></linearConstraintCoefficients><nonlinearExpressions numberOfNonlinearExpressions="3"><nl idx="4"><product><sum><divide><variable idx="19"/><sum><number value="1e-3"/><variable idx="37" coef=".999"/></sum></divide><negate><ln><sum><divide><variable idx="15"/><sum><number value="1e-3"/><variable idx="37" coef=".999"/></sum></divide><number value="1"/></sum></ln></negate></sum><sum><number value="1e-3"/><variable idx="37" coef=".999"/></sum></product></nl><nl idx="13"><product><sum><divide><variable idx="21"/><sum><number value="1e-3"/><variable idx="38" coef=".999"/></sum></divide><product><ln><sum><divide><variable idx="17"/><sum><number value="1e-3"/><variable idx="38" coef=".999"/></sum></divide><number value="1"/></sum></ln><number value="-1.2"/></product></sum><sum><number value="1e-3"/><variable idx="38" coef=".999"/></sum></product></nl><nl idx="31"><product><sum><divide><variable idx="33"/><sum><number value="1e-3"/><variable idx="40" coef=".999"/></sum></divide><product><ln><sum><divide><variable idx="25"/><sum><number value="1e-3"/><variable idx="40" coef=".999"/></sum></divide><number value="1"/></sum></ln><number value="-1.5"/></product></sum><sum><number value="1e-3"/><variable idx="40" coef=".999"/></sum></product></nl></nonlinearExpressions></instanceData></osil>